c Created with the Wolfram Language : www.wolfram.com
c 
p edge 70 475
e 2 3
e 2 5
e 4 5
e 4 6
e 5 7
e 7 8
e 3 9
e 5 10
e 8 11
e 8 12
e 10 12
e 11 12
e 4 13
e 8 13
e 9 14
e 4 15
e 10 15
e 13 15
e 1 16
e 4 16
e 6 16
e 14 16
e 15 16
e 6 17
e 8 17
e 9 17
e 12 17
e 3 18
e 7 18
e 8 18
e 9 18
e 12 18
e 14 18
e 7 19
e 8 19
e 11 19
e 16 19
e 3 20
e 6 20
e 13 20
e 6 21
e 8 21
e 9 21
e 17 21
e 18 21
e 8 22
e 9 22
e 2 23
e 13 23
e 14 23
e 17 23
e 22 23
e 3 24
e 9 24
e 13 24
e 18 24
e 19 24
e 22 24
e 23 24
e 1 25
e 9 25
e 14 25
e 17 25
e 23 25
e 24 25
e 5 26
e 18 26
e 19 26
e 24 26
e 6 27
e 7 27
e 8 27
e 10 27
e 1 28
e 23 28
e 12 29
e 14 29
e 23 29
e 27 29
e 1 30
e 2 30
e 8 30
e 12 30
e 16 30
e 19 30
e 21 30
e 2 31
e 10 31
e 15 31
e 17 31
e 19 31
e 21 31
e 30 31
e 2 32
e 10 32
e 16 32
e 17 32
e 25 32
e 11 33
e 14 33
e 15 33
e 21 33
e 22 33
e 27 33
e 30 33
e 4 34
e 9 34
e 17 34
e 22 34
e 23 34
e 28 34
e 4 35
e 6 35
e 12 35
e 21 35
e 22 35
e 24 35
e 29 35
e 1 36
e 10 36
e 18 36
e 19 36
e 22 36
e 31 36
e 32 36
e 33 36
e 34 36
e 6 37
e 14 37
e 23 37
e 27 37
e 2 38
e 6 38
e 16 38
e 20 38
e 21 38
e 30 38
e 34 38
e 37 38
e 18 39
e 23 39
e 28 39
e 29 39
e 35 39
e 1 40
e 5 40
e 13 40
e 14 40
e 26 40
e 30 40
e 34 40
e 2 41
e 4 41
e 7 41
e 22 41
e 27 41
e 2 42
e 14 42
e 16 42
e 19 42
e 20 42
e 28 42
e 29 42
e 30 42
e 32 42
e 40 42
e 11 43
e 19 43
e 37 43
e 5 44
e 10 44
e 11 44
e 14 44
e 19 44
e 36 44
e 2 45
e 4 45
e 16 45
e 17 45
e 20 45
e 29 45
e 34 45
e 41 45
e 43 45
e 5 46
e 6 46
e 7 46
e 14 46
e 15 46
e 16 46
e 17 46
e 18 46
e 19 46
e 24 46
e 27 46
e 37 46
e 44 46
e 5 47
e 11 47
e 12 47
e 17 47
e 19 47
e 21 47
e 22 47
e 41 47
e 44 47
e 12 48
e 18 48
e 23 48
e 25 48
e 35 48
e 38 48
e 3 49
e 5 49
e 6 49
e 17 49
e 20 49
e 34 49
e 38 49
e 40 49
e 43 49
e 47 49
e 3 50
e 7 50
e 10 50
e 21 50
e 25 50
e 26 50
e 46 50
e 4 51
e 5 51
e 9 51
e 16 51
e 25 51
e 26 51
e 27 51
e 32 51
e 33 51
e 34 51
e 40 51
e 43 51
e 45 51
e 4 52
e 7 52
e 9 52
e 10 52
e 20 52
e 23 52
e 27 52
e 30 52
e 33 52
e 1 53
e 16 53
e 17 53
e 24 53
e 39 53
e 4 54
e 6 54
e 9 54
e 14 54
e 20 54
e 23 54
e 24 54
e 25 54
e 29 54
e 31 54
e 34 54
e 40 54
e 41 54
e 42 54
e 47 54
e 50 54
e 8 55
e 25 55
e 28 55
e 32 55
e 33 55
e 35 55
e 36 55
e 40 55
e 50 55
e 8 56
e 13 56
e 19 56
e 27 56
e 32 56
e 36 56
e 38 56
e 52 56
e 53 56
e 54 56
e 7 57
e 11 57
e 13 57
e 14 57
e 19 57
e 25 57
e 27 57
e 29 57
e 31 57
e 35 57
e 42 57
e 52 57
e 3 58
e 12 58
e 16 58
e 19 58
e 20 58
e 21 58
e 32 58
e 35 58
e 43 58
e 52 58
e 55 58
e 12 59
e 24 59
e 25 59
e 30 59
e 32 59
e 34 59
e 45 59
e 47 59
e 55 59
e 3 60
e 17 60
e 21 60
e 22 60
e 25 60
e 30 60
e 35 60
e 38 60
e 39 60
e 44 60
e 55 60
e 58 60
e 59 60
e 3 61
e 8 61
e 12 61
e 17 61
e 21 61
e 24 61
e 29 61
e 30 61
e 42 61
e 44 61
e 54 61
e 55 61
e 6 62
e 16 62
e 21 62
e 29 62
e 32 62
e 33 62
e 35 62
e 43 62
e 51 62
e 53 62
e 55 62
e 5 63
e 12 63
e 14 63
e 20 63
e 24 63
e 25 63
e 38 63
e 52 63
e 58 63
e 10 64
e 11 64
e 26 64
e 30 64
e 35 64
e 37 64
e 38 64
e 40 64
e 41 64
e 42 64
e 46 64
e 52 64
e 62 64
e 63 64
e 4 65
e 8 65
e 10 65
e 11 65
e 26 65
e 37 65
e 39 65
e 46 65
e 47 65
e 49 65
e 54 65
e 55 65
e 56 65
e 62 65
e 28 66
e 29 66
e 31 66
e 40 66
e 45 66
e 46 66
e 54 66
e 1 67
e 4 67
e 8 67
e 11 67
e 14 67
e 16 67
e 24 67
e 30 67
e 41 67
e 45 67
e 57 67
e 61 67
e 1 68
e 3 68
e 4 68
e 9 68
e 18 68
e 21 68
e 24 68
e 25 68
e 26 68
e 31 68
e 32 68
e 33 68
e 35 68
e 36 68
e 40 68
e 41 68
e 43 68
e 49 68
e 53 68
e 62 68
e 67 68
e 3 69
e 7 69
e 9 69
e 11 69
e 15 69
e 19 69
e 21 69
e 24 69
e 25 69
e 26 69
e 29 69
e 30 69
e 35 69
e 39 69
e 43 69
e 50 69
e 51 69
e 53 69
e 54 69
e 60 69
e 61 69
e 62 69
e 4 70
e 6 70
e 8 70
e 9 70
e 10 70
e 12 70
e 14 70
e 15 70
e 19 70
e 22 70
e 37 70
e 39 70
e 47 70
e 56 70
e 57 70
e 60 70
e 67 70
